c CNF
c from Selman's wff generator
p cnf 200  1800
1.0 131 48 0
1.0 138 178 0
1.0 -67 191 0
1.0 164 -189 0
1.0 -199 80 0
1.0 -116 149 0
1.0 93 40 0
1.0 -50 -18 0
1.0 65 12 0
1.0 190 48 0
1.0 -39 1 0
1.0 -189 -198 0
1.0 77 -123 0
1.0 72 -14 0
1.0 -54 -47 0
1.0 64 -166 0
1.0 -177 -109 0
1.0 157 -16 0
1.0 -16 156 0
1.0 -154 144 0
1.0 66 -39 0
1.0 -53 -34 0
1.0 81 -78 0
1.0 43 92 0
1.0 -200 -4 0
1.0 -19 7 0
1.0 162 -149 0
1.0 -92 -28 0
1.0 66 -168 0
1.0 1 195 0
1.0 72 -33 0
1.0 -124 -98 0
1.0 101 -118 0
1.0 -124 30 0
1.0 -179 189 0
1.0 16 145 0
1.0 112 -121 0
1.0 -115 -25 0
1.0 -57 -19 0
1.0 -117 33 0
1.0 -151 182 0
1.0 -12 -87 0
1.0 76 160 0
1.0 -104 86 0
1.0 -7 -174 0
1.0 -198 123 0
1.0 142 8 0
1.0 41 -138 0
1.0 120 -10 0
1.0 -97 -24 0
1.0 183 181 0
1.0 -66 36 0
1.0 -9 30 0
1.0 153 101 0
1.0 -108 -96 0
1.0 -34 -25 0
1.0 34 -4 0
1.0 -28 6 0
1.0 186 165 0
1.0 -200 198 0
1.0 28 -117 0
1.0 18 -76 0
1.0 172 24 0
1.0 -49 13 0
1.0 16 43 0
1.0 48 114 0
1.0 78 149 0
1.0 147 -9 0
1.0 -126 -101 0
1.0 177 -28 0
1.0 -51 142 0
1.0 -154 -110 0
1.0 153 193 0
1.0 107 -65 0
1.0 14 -119 0
1.0 -128 148 0
1.0 -49 89 0
1.0 -117 -65 0
1.0 7 -125 0
1.0 -35 -47 0
1.0 -40 -143 0
1.0 -8 21 0
1.0 -140 193 0
1.0 -141 -116 0
1.0 5 -117 0
1.0 182 -188 0
1.0 -113 -153 0
1.0 -200 79 0
1.0 -21 121 0
1.0 142 115 0
1.0 -107 30 0
1.0 146 -68 0
1.0 185 -50 0
1.0 -38 -159 0
1.0 112 -103 0
1.0 -181 30 0
1.0 151 134 0
1.0 -49 -79 0
1.0 109 121 0
1.0 188 -38 0
1.0 -88 -76 0
1.0 35 -92 0
1.0 195 -170 0
1.0 -200 -7 0
1.0 141 -7 0
1.0 -85 -16 0
1.0 136 -145 0
1.0 183 52 0
1.0 -128 -35 0
1.0 -127 -68 0
1.0 38 167 0
1.0 -173 -73 0
1.0 -80 -30 0
1.0 -45 -158 0
1.0 -5 105 0
1.0 -1 42 0
1.0 -37 -146 0
1.0 -55 81 0
1.0 -177 178 0
1.0 -165 -107 0
1.0 9 94 0
1.0 51 20 0
1.0 -124 -16 0
1.0 -57 95 0
1.0 -41 120 0
1.0 -1 -138 0
1.0 116 110 0
1.0 16 155 0
1.0 48 114 0
1.0 -133 121 0
1.0 -136 -65 0
1.0 160 -140 0
1.0 59 83 0
1.0 21 -11 0
1.0 120 -62 0
1.0 -17 92 0
1.0 -5 -37 0
1.0 -158 117 0
1.0 181 -176 0
1.0 -115 -170 0
1.0 52 35 0
1.0 45 -69 0
1.0 130 -25 0
1.0 116 -59 0
1.0 96 174 0
1.0 -90 52 0
1.0 27 -30 0
1.0 -200 151 0
1.0 -186 148 0
1.0 -16 -132 0
1.0 156 94 0
1.0 -153 103 0
1.0 -77 -49 0
1.0 101 -46 0
1.0 75 47 0
1.0 -198 -185 0
1.0 133 -49 0
1.0 181 -8 0
1.0 102 186 0
1.0 -89 -199 0
1.0 -48 -3 0
1.0 49 -167 0
1.0 -14 145 0
1.0 -130 123 0
1.0 172 -7 0
1.0 15 -104 0
1.0 -90 -95 0
1.0 -93 -72 0
1.0 75 -72 0
1.0 38 164 0
1.0 108 44 0
1.0 167 -56 0
1.0 63 110 0
1.0 -14 -178 0
1.0 72 -163 0
1.0 -35 -23 0
1.0 95 -193 0
1.0 -156 79 0
1.0 -122 45 0
1.0 100 -200 0
1.0 110 -116 0
1.0 93 -32 0
1.0 -194 106 0
1.0 -129 34 0
1.0 -26 -170 0
1.0 48 -138 0
1.0 182 145 0
1.0 145 83 0
1.0 -199 83 0
1.0 114 -2 0
1.0 -108 185 0
1.0 18 72 0
1.0 41 13 0
1.0 150 -68 0
1.0 12 -114 0
1.0 197 -57 0
1.0 140 187 0
1.0 -188 141 0
1.0 -126 -94 0
1.0 -166 189 0
1.0 1 -11 0
1.0 78 152 0
1.0 66 96 0
1.0 152 56 0
1.0 -42 142 0
1.0 -83 103 0
1.0 -196 -55 0
1.0 -44 137 0
1.0 -147 62 0
1.0 -13 76 0
1.0 -171 -160 0
1.0 15 195 0
1.0 136 158 0
1.0 60 11 0
1.0 65 -177 0
1.0 -113 183 0
1.0 45 147 0
1.0 -23 -199 0
1.0 -158 -74 0
1.0 69 130 0
1.0 87 -115 0
1.0 125 -48 0
1.0 24 -17 0
1.0 -199 51 0
1.0 197 81 0
1.0 80 35 0
1.0 109 -128 0
1.0 -58 -39 0
1.0 154 4 0
1.0 52 91 0
1.0 107 -167 0
1.0 -17 9 0
1.0 90 -47 0
1.0 82 -44 0
1.0 -172 15 0
1.0 -54 147 0
1.0 151 62 0
1.0 152 154 0
1.0 -120 -89 0
1.0 -97 -110 0
1.0 -157 182 0
1.0 26 -159 0
1.0 173 193 0
1.0 139 196 0
1.0 58 118 0
1.0 72 -168 0
1.0 -57 -28 0
1.0 -138 77 0
1.0 -59 93 0
1.0 51 157 0
1.0 149 104 0
1.0 -100 -83 0
1.0 -1 68 0
1.0 36 31 0
1.0 59 -190 0
1.0 66 -183 0
1.0 75 -20 0
1.0 -176 -87 0
1.0 191 200 0
1.0 82 189 0
1.0 -57 11 0
1.0 -42 15 0
1.0 4 29 0
1.0 -12 185 0
1.0 4 -1 0
1.0 -88 162 0
1.0 -161 116 0
1.0 -105 -13 0
1.0 24 76 0
1.0 -91 38 0
1.0 -67 60 0
1.0 -45 158 0
1.0 159 176 0
1.0 -137 131 0
1.0 -47 -90 0
1.0 -102 -63 0
1.0 -139 167 0
1.0 -4 154 0
1.0 -14 88 0
1.0 -45 112 0
1.0 87 133 0
1.0 -63 -171 0
1.0 61 -60 0
1.0 123 172 0
1.0 138 -77 0
1.0 31 13 0
1.0 -101 -159 0
1.0 -71 -8 0
1.0 -140 196 0
1.0 -167 102 0
1.0 -162 170 0
1.0 -142 77 0
1.0 154 -34 0
1.0 47 -32 0
1.0 191 132 0
1.0 139 40 0
1.0 36 198 0
1.0 100 191 0
1.0 -161 -19 0
1.0 -96 88 0
1.0 122 -1 0
1.0 -32 64 0
1.0 195 -8 0
1.0 47 101 0
1.0 99 -91 0
1.0 81 114 0
1.0 -132 2 0
1.0 90 123 0
1.0 -123 -112 0
1.0 -175 -96 0
1.0 -103 -59 0
1.0 160 113 0
1.0 4 115 0
1.0 -29 -113 0
1.0 -114 68 0
1.0 191 -66 0
1.0 178 -194 0
1.0 -89 -43 0
1.0 -102 24 0
1.0 -137 -172 0
1.0 87 -174 0
1.0 86 -150 0
1.0 18 63 0
1.0 -128 -18 0
1.0 11 188 0
1.0 31 -179 0
1.0 -3 -32 0
1.0 3 112 0
1.0 85 -103 0
1.0 -53 78 0
1.0 140 173 0
1.0 -190 199 0
1.0 187 30 0
1.0 -9 191 0
1.0 -22 142 0
1.0 -54 -27 0
1.0 -130 -116 0
1.0 193 -78 0
1.0 51 130 0
1.0 128 -174 0
1.0 -3 141 0
1.0 131 -80 0
1.0 -22 171 0
1.0 198 -90 0
1.0 -5 -121 0
1.0 -199 160 0
1.0 89 131 0
1.0 -104 -130 0
1.0 -70 61 0
1.0 -140 -153 0
1.0 -130 36 0
1.0 48 -34 0
1.0 -142 -21 0
1.0 -151 17 0
1.0 -106 5 0
1.0 -135 -91 0
1.0 -9 -105 0
1.0 58 -96 0
1.0 132 -165 0
1.0 -199 -29 0
1.0 50 115 0
1.0 131 29 0
1.0 34 -67 0
1.0 -158 -175 0
1.0 -79 -99 0
1.0 -195 -172 0
1.0 -136 -128 0
1.0 157 53 0
1.0 168 114 0
1.0 -143 -88 0
1.0 -154 -6 0
1.0 180 108 0
1.0 -6 190 0
1.0 -161 115 0
1.0 43 -32 0
1.0 85 105 0
1.0 -19 -11 0
1.0 -98 85 0
1.0 -90 80 0
1.0 -188 -38 0
1.0 -28 -120 0
1.0 35 121 0
1.0 152 116 0
1.0 21 80 0
1.0 -91 -38 0
1.0 122 135 0
1.0 15 1 0
1.0 -38 8 0
1.0 128 -189 0
1.0 109 138 0
1.0 54 114 0
1.0 -194 183 0
1.0 20 -110 0
1.0 -45 111 0
1.0 111 -34 0
1.0 42 -56 0
1.0 -44 -67 0
1.0 5 169 0
1.0 -83 109 0
1.0 -91 -42 0
1.0 152 -31 0
1.0 142 5 0
1.0 39 115 0
1.0 170 15 0
1.0 -81 179 0
1.0 -147 179 0
1.0 -87 -73 0
1.0 115 65 0
1.0 95 139 0
1.0 143 -117 0
1.0 31 -89 0
1.0 103 -109 0
1.0 87 179 0
1.0 158 11 0
1.0 84 -167 0
1.0 31 -109 0
1.0 -48 -128 0
1.0 -44 50 0
1.0 138 32 0
1.0 140 87 0
1.0 65 92 0
1.0 102 -121 0
1.0 -87 -88 0
1.0 197 48 0
1.0 175 4 0
1.0 54 -5 0
1.0 36 -166 0
1.0 52 -56 0
1.0 -147 59 0
1.0 179 5 0
1.0 -92 17 0
1.0 -65 25 0
1.0 28 167 0
1.0 172 150 0
1.0 -115 -104 0
1.0 159 -183 0
1.0 -42 21 0
1.0 25 -187 0
1.0 4 68 0
1.0 -92 -138 0
1.0 104 166 0
1.0 116 72 0
1.0 -175 -65 0
1.0 48 78 0
1.0 -98 -192 0
1.0 179 -196 0
1.0 63 -44 0
1.0 181 158 0
1.0 -123 75 0
1.0 146 -41 0
1.0 105 -64 0
1.0 141 92 0
1.0 -84 150 0
1.0 145 199 0
1.0 -42 93 0
1.0 -50 -37 0
1.0 111 65 0
1.0 -105 78 0
1.0 -141 32 0
1.0 -123 2 0
1.0 152 81 0
1.0 -80 -110 0
1.0 -2 67 0
1.0 103 50 0
1.0 115 33 0
1.0 111 47 0
1.0 -78 191 0
1.0 193 -53 0
1.0 134 74 0
1.0 -183 -145 0
1.0 11 -79 0
1.0 -129 60 0
1.0 92 196 0
1.0 43 -92 0
1.0 -83 185 0
1.0 37 -127 0
1.0 -1 -60 0
1.0 -4 118 0
1.0 -197 -4 0
1.0 -63 -54 0
1.0 -50 31 0
1.0 123 10 0
1.0 194 132 0
1.0 58 98 0
1.0 157 -184 0
1.0 -102 9 0
1.0 13 104 0
1.0 157 192 0
1.0 23 -187 0
1.0 -197 -109 0
1.0 40 29 0
1.0 -127 22 0
1.0 5 -197 0
1.0 6 20 0
1.0 123 27 0
1.0 18 123 0
1.0 -110 -183 0
1.0 92 -135 0
1.0 164 118 0
1.0 -139 -185 0
1.0 181 -17 0
1.0 36 -54 0
1.0 80 97 0
1.0 -20 -124 0
1.0 107 -124 0
1.0 -58 132 0
1.0 -49 -157 0
1.0 -142 -83 0
1.0 -99 -182 0
1.0 35 -112 0
1.0 9 131 0
1.0 -54 -149 0
1.0 -72 -193 0
1.0 -125 -86 0
1.0 -43 -61 0
1.0 -143 93 0
1.0 -74 -14 0
1.0 125 -69 0
1.0 -200 33 0
1.0 181 119 0
1.0 -112 170 0
1.0 55 133 0
1.0 193 -170 0
1.0 -62 -185 0
1.0 198 -154 0
1.0 22 64 0
1.0 96 18 0
1.0 -137 87 0
1.0 56 -111 0
1.0 43 92 0
1.0 -61 -85 0
1.0 70 148 0
1.0 -101 -100 0
1.0 -164 47 0
1.0 -64 -18 0
1.0 104 -65 0
1.0 176 131 0
1.0 22 74 0
1.0 159 25 0
1.0 173 62 0
1.0 -161 -86 0
1.0 -132 -141 0
1.0 -159 120 0
1.0 185 -43 0
1.0 -173 -90 0
1.0 164 -34 0
1.0 -58 80 0
1.0 -141 -47 0
1.0 133 101 0
1.0 41 -10 0
1.0 130 -55 0
1.0 98 82 0
1.0 171 -54 0
1.0 87 -140 0
1.0 -20 -8 0
1.0 54 -79 0
1.0 180 88 0
1.0 98 110 0
1.0 -165 79 0
1.0 -160 -17 0
1.0 70 -197 0
1.0 -136 -122 0
1.0 -130 -75 0
1.0 -154 -178 0
1.0 -66 -19 0
1.0 -129 171 0
1.0 -49 133 0
1.0 -149 87 0
1.0 -83 6 0
1.0 -127 75 0
1.0 150 -89 0
1.0 66 -9 0
1.0 28 -189 0
1.0 159 85 0
1.0 18 -2 0
1.0 -88 -157 0
1.0 -162 159 0
1.0 -33 -162 0
1.0 51 -185 0
1.0 193 121 0
1.0 -109 142 0
1.0 27 24 0
1.0 26 -92 0
1.0 49 194 0
1.0 152 -73 0
1.0 -34 43 0
1.0 28 51 0
1.0 171 49 0
1.0 -190 17 0
1.0 41 21 0
1.0 -113 -70 0
1.0 -63 65 0
1.0 -137 -68 0
1.0 111 -164 0
1.0 -15 -56 0
1.0 104 199 0
1.0 -16 9 0
1.0 -30 -170 0
1.0 -39 -103 0
1.0 -167 -73 0
1.0 141 114 0
1.0 -78 128 0
1.0 184 148 0
1.0 -147 -140 0
1.0 149 -92 0
1.0 -61 141 0
1.0 43 23 0
1.0 -96 117 0
1.0 31 -185 0
1.0 -113 76 0
1.0 -23 -77 0
1.0 -16 -164 0
1.0 -55 -149 0
1.0 89 -62 0
1.0 -85 -17 0
1.0 133 -53 0
1.0 38 -102 0
1.0 178 72 0
1.0 -148 -29 0
1.0 -193 100 0
1.0 -49 -69 0
1.0 131 178 0
1.0 -195 -9 0
1.0 61 9 0
1.0 111 162 0
1.0 33 -93 0
1.0 -122 -57 0
1.0 -157 70 0
1.0 -139 123 0
1.0 101 11 0
1.0 20 77 0
1.0 -86 -113 0
1.0 74 -25 0
1.0 118 171 0
1.0 -28 -30 0
1.0 -100 112 0
1.0 -35 -132 0
1.0 142 -189 0
1.0 65 -53 0
1.0 -165 18 0
1.0 -43 -30 0
1.0 -1 32 0
1.0 62 -151 0
1.0 -62 1 0
1.0 132 105 0
1.0 93 -62 0
1.0 -114 75 0
1.0 -93 -55 0
1.0 84 62 0
1.0 -93 -94 0
1.0 -44 -124 0
1.0 124 114 0
1.0 -19 -34 0
1.0 96 164 0
1.0 39 -177 0
1.0 31 -5 0
1.0 -66 -162 0
1.0 -56 111 0
1.0 34 -28 0
1.0 141 -7 0
1.0 40 -144 0
1.0 -107 -139 0
1.0 115 -32 0
1.0 36 -144 0
1.0 106 -60 0
1.0 170 172 0
1.0 -199 -65 0
1.0 71 -176 0
1.0 119 170 0
1.0 -108 190 0
1.0 -21 48 0
1.0 -192 29 0
1.0 88 17 0
1.0 189 -119 0
1.0 -183 22 0
1.0 -198 -27 0
1.0 -196 -10 0
1.0 -199 112 0
1.0 160 -94 0
1.0 123 33 0
1.0 50 107 0
1.0 25 128 0
1.0 150 -153 0
1.0 180 -26 0
1.0 36 2 0
1.0 114 4 0
1.0 97 130 0
1.0 163 72 0
1.0 179 96 0
1.0 23 -76 0
1.0 -29 73 0
1.0 -99 -179 0
1.0 -181 60 0
1.0 -63 -22 0
1.0 -152 -190 0
1.0 -62 8 0
1.0 103 -175 0
1.0 51 55 0
1.0 128 14 0
1.0 -192 -68 0
1.0 128 -130 0
1.0 -151 -33 0
1.0 22 129 0
1.0 -136 141 0
1.0 -115 -167 0
1.0 22 -59 0
1.0 -72 129 0
1.0 197 -136 0
1.0 -65 103 0
1.0 -135 -64 0
1.0 193 -134 0
1.0 -74 -163 0
1.0 -129 -154 0
1.0 197 -99 0
1.0 -74 123 0
1.0 159 45 0
1.0 -159 91 0
1.0 9 -152 0
1.0 191 -142 0
1.0 108 4 0
1.0 157 -31 0
1.0 130 83 0
1.0 5 -199 0
1.0 44 89 0
1.0 180 -18 0
1.0 -169 -39 0
1.0 -180 145 0
1.0 -148 -193 0
1.0 24 -148 0
1.0 -30 134 0
1.0 -133 -170 0
1.0 -59 21 0
1.0 39 3 0
1.0 -41 155 0
1.0 -99 78 0
1.0 -71 33 0
1.0 181 6 0
1.0 140 4 0
1.0 174 42 0
1.0 62 27 0
1.0 -30 94 0
1.0 49 -73 0
1.0 -151 198 0
1.0 -31 144 0
1.0 150 164 0
1.0 -168 -66 0
1.0 -108 -10 0
1.0 37 42 0
1.0 -136 -176 0
1.0 -49 -25 0
1.0 23 125 0
1.0 69 136 0
1.0 -99 86 0
1.0 151 68 0
1.0 78 -180 0
1.0 -22 -96 0
1.0 -71 -115 0
1.0 -140 -73 0
1.0 198 138 0
1.0 74 -80 0
1.0 165 -190 0
1.0 -57 -46 0
1.0 25 1 0
1.0 97 -28 0
1.0 143 144 0
1.0 17 4 0
1.0 142 62 0
1.0 -141 -162 0
1.0 152 26 0
1.0 -71 195 0
1.0 -196 191 0
1.0 19 -145 0
1.0 89 -145 0
1.0 -149 89 0
1.0 -150 198 0
1.0 -160 -92 0
1.0 -118 -19 0
1.0 14 62 0
1.0 -52 26 0
1.0 170 160 0
1.0 -105 75 0
1.0 -164 -81 0
1.0 79 48 0
1.0 -139 1 0
1.0 19 67 0
1.0 -128 -41 0
1.0 -142 -49 0
1.0 80 -181 0
1.0 -143 58 0
1.0 -1 31 0
1.0 -35 140 0
1.0 88 -43 0
1.0 86 87 0
1.0 -128 61 0
1.0 -110 -89 0
1.0 -69 175 0
1.0 32 62 0
1.0 93 -138 0
1.0 -77 -66 0
1.0 -108 -18 0
1.0 105 200 0
1.0 -61 -174 0
1.0 -62 -70 0
1.0 -44 105 0
1.0 -166 177 0
1.0 -114 -187 0
1.0 -53 -148 0
1.0 -166 73 0
1.0 -72 -161 0
1.0 -135 -1 0
1.0 -71 -64 0
1.0 -169 -67 0
1.0 -43 -96 0
1.0 -83 -177 0
1.0 125 100 0
1.0 -172 49 0
1.0 -10 -61 0
1.0 -62 -80 0
1.0 144 -65 0
1.0 132 -34 0
1.0 -129 38 0
1.0 -15 -77 0
1.0 176 -41 0
1.0 -90 189 0
1.0 49 -169 0
1.0 48 -181 0
1.0 -45 -86 0
1.0 -119 150 0
1.0 187 80 0
1.0 -156 -6 0
1.0 46 -170 0
1.0 159 71 0
1.0 -39 75 0
1.0 55 158 0
1.0 44 -182 0
1.0 131 -24 0
1.0 -103 70 0
1.0 -75 -60 0
1.0 30 -69 0
1.0 -140 -89 0
1.0 163 112 0
1.0 -69 -143 0
1.0 124 190 0
1.0 -14 -85 0
1.0 -155 90 0
1.0 -150 -164 0
1.0 -33 -5 0
1.0 -93 162 0
1.0 73 -14 0
1.0 156 188 0
1.0 -178 -129 0
1.0 -14 -105 0
1.0 -194 -81 0
1.0 -45 146 0
1.0 150 89 0
1.0 50 -198 0
1.0 11 -169 0
1.0 156 -118 0
1.0 -47 179 0
1.0 83 30 0
1.0 111 -24 0
1.0 170 -142 0
1.0 -30 80 0
1.0 77 58 0
1.0 26 -66 0
1.0 -184 99 0
1.0 78 -38 0
1.0 68 -118 0
1.0 -142 -56 0
1.0 198 164 0
1.0 -43 -190 0
1.0 47 109 0
1.0 175 -59 0
1.0 -158 169 0
1.0 -6 79 0
1.0 197 -30 0
1.0 86 184 0
1.0 -148 -79 0
1.0 -69 -17 0
1.0 -126 115 0
1.0 174 -42 0
1.0 -10 46 0
1.0 124 -159 0
1.0 189 140 0
1.0 -123 107 0
1.0 185 67 0
1.0 -83 169 0
1.0 -84 155 0
1.0 -196 165 0
1.0 11 -151 0
1.0 110 108 0
1.0 -48 -112 0
1.0 18 128 0
1.0 194 100 0
1.0 69 -22 0
1.0 177 -192 0
1.0 -157 -195 0
1.0 -145 197 0
1.0 -105 -155 0
1.0 -66 122 0
1.0 50 162 0
1.0 -61 -140 0
1.0 161 -5 0
1.0 -197 -89 0
1.0 -83 86 0
1.0 83 -21 0
1.0 -175 33 0
1.0 -155 61 0
1.0 22 9 0
1.0 148 -167 0
1.0 172 -92 0
1.0 -180 154 0
1.0 40 -41 0
1.0 -62 170 0
1.0 3 -49 0
1.0 -109 -200 0
1.0 8 -7 0
1.0 174 -24 0
1.0 -116 108 0
1.0 -61 -34 0
1.0 75 -46 0
1.0 -16 132 0
1.0 -180 49 0
1.0 48 135 0
1.0 141 -32 0
1.0 56 -74 0
1.0 181 172 0
1.0 -5 23 0
1.0 69 165 0
1.0 -97 188 0
1.0 -36 78 0
1.0 -12 -184 0
1.0 15 149 0
1.0 23 126 0
1.0 97 -107 0
1.0 -130 -187 0
1.0 152 197 0
1.0 -184 186 0
1.0 -63 89 0
1.0 72 39 0
1.0 -188 92 0
1.0 17 -198 0
1.0 104 58 0
1.0 44 -196 0
1.0 192 -114 0
1.0 -99 -166 0
1.0 54 -94 0
1.0 133 -60 0
1.0 -152 -170 0
1.0 167 142 0
1.0 -199 97 0
1.0 93 135 0
1.0 49 -80 0
1.0 -46 51 0
1.0 144 143 0
1.0 -3 -37 0
1.0 -6 -125 0
1.0 66 6 0
1.0 -103 -147 0
1.0 82 -145 0
1.0 24 136 0
1.0 -187 -186 0
1.0 129 -194 0
1.0 31 1 0
1.0 126 -9 0
1.0 14 -52 0
1.0 -199 162 0
1.0 107 -188 0
1.0 -124 -88 0
1.0 74 168 0
1.0 -161 -45 0
1.0 46 -17 0
1.0 -25 36 0
1.0 -87 17 0
1.0 -179 65 0
1.0 52 -176 0
1.0 63 -14 0
1.0 -182 -124 0
1.0 -169 69 0
1.0 -86 -160 0
1.0 -195 147 0
1.0 -164 -104 0
1.0 168 132 0
1.0 -108 -42 0
1.0 -56 79 0
1.0 -3 -43 0
1.0 -112 -113 0
1.0 -72 170 0
1.0 -117 56 0
1.0 159 -115 0
1.0 -47 -48 0
1.0 -90 -140 0
1.0 -19 30 0
1.0 -73 -161 0
1.0 -73 -179 0
1.0 149 87 0
1.0 -143 -160 0
1.0 75 -165 0
1.0 13 -174 0
1.0 113 -199 0
1.0 -28 29 0
1.0 189 147 0
1.0 125 63 0
1.0 -150 19 0
1.0 -178 81 0
1.0 -45 21 0
1.0 -195 -48 0
1.0 46 5 0
1.0 -33 193 0
1.0 139 55 0
1.0 -118 91 0
1.0 -109 73 0
1.0 -153 -152 0
1.0 173 -111 0
1.0 158 12 0
1.0 17 113 0
1.0 106 48 0
1.0 -102 155 0
1.0 45 -43 0
1.0 115 45 0
1.0 197 -176 0
1.0 -86 117 0
1.0 128 -11 0
1.0 -124 121 0
1.0 168 65 0
1.0 19 180 0
1.0 22 -176 0
1.0 20 54 0
1.0 -29 -65 0
1.0 -181 -123 0
1.0 133 4 0
1.0 125 47 0
1.0 -111 -158 0
1.0 -137 -52 0
1.0 27 7 0
1.0 60 95 0
1.0 160 -49 0
1.0 172 -162 0
1.0 -165 101 0
1.0 -148 46 0
1.0 -3 -145 0
1.0 197 177 0
1.0 183 191 0
1.0 -86 134 0
1.0 -183 -134 0
1.0 95 33 0
1.0 -134 18 0
1.0 -63 132 0
1.0 76 125 0
1.0 101 102 0
1.0 -92 -166 0
1.0 99 57 0
1.0 190 7 0
1.0 -40 -91 0
1.0 108 -94 0
1.0 25 193 0
1.0 -117 39 0
1.0 -140 67 0
1.0 32 -28 0
1.0 84 31 0
1.0 -37 44 0
1.0 135 102 0
1.0 196 104 0
1.0 -96 47 0
1.0 85 91 0
1.0 158 -131 0
1.0 -158 64 0
1.0 -94 -130 0
1.0 173 -73 0
1.0 -175 -56 0
1.0 -159 161 0
1.0 7 108 0
1.0 -199 -97 0
1.0 -28 -172 0
1.0 35 -64 0
1.0 193 -142 0
1.0 15 -65 0
1.0 -120 22 0
1.0 -183 -149 0
1.0 56 199 0
1.0 96 -197 0
1.0 -168 155 0
1.0 -18 136 0
1.0 -78 189 0
1.0 54 -48 0
1.0 70 41 0
1.0 189 183 0
1.0 181 122 0
1.0 -118 109 0
1.0 63 108 0
1.0 43 -19 0
1.0 8 66 0
1.0 113 -93 0
1.0 133 -84 0
1.0 -66 75 0
1.0 -196 -64 0
1.0 -172 121 0
1.0 -28 87 0
1.0 -105 -4 0
1.0 -69 -2 0
1.0 -95 6 0
1.0 -89 -198 0
1.0 -72 115 0
1.0 -178 -122 0
1.0 -42 180 0
1.0 -67 -98 0
1.0 101 -131 0
1.0 -132 57 0
1.0 62 -114 0
1.0 -112 -3 0
1.0 117 104 0
1.0 25 31 0
1.0 -11 28 0
1.0 126 76 0
1.0 -6 -132 0
1.0 -188 146 0
1.0 -59 -18 0
1.0 -20 -103 0
1.0 7 3 0
1.0 34 74 0
1.0 -102 32 0
1.0 107 -168 0
1.0 99 48 0
1.0 -193 13 0
1.0 31 134 0
1.0 -37 175 0
1.0 178 15 0
1.0 89 -170 0
1.0 2 -174 0
1.0 142 70 0
1.0 -117 -70 0
1.0 -83 -62 0
1.0 -196 184 0
1.0 159 -147 0
1.0 -162 149 0
1.0 119 -200 0
1.0 174 -56 0
1.0 -125 48 0
1.0 -117 -83 0
1.0 -144 -114 0
1.0 -98 74 0
1.0 -21 -47 0
1.0 196 -137 0
1.0 136 -71 0
1.0 127 61 0
1.0 109 180 0
1.0 62 45 0
1.0 -159 137 0
1.0 -11 116 0
1.0 163 -103 0
1.0 40 -45 0
1.0 116 106 0
1.0 166 108 0
1.0 87 -186 0
1.0 -31 -124 0
1.0 60 97 0
1.0 -13 -158 0
1.0 -61 115 0
1.0 160 6 0
1.0 -111 158 0
1.0 -65 -9 0
1.0 195 49 0
1.0 173 52 0
1.0 -149 -61 0
1.0 -18 4 0
1.0 -119 70 0
1.0 -76 -51 0
1.0 9 68 0
1.0 76 13 0
1.0 61 123 0
1.0 174 -110 0
1.0 170 -168 0
1.0 172 19 0
1.0 -89 -42 0
1.0 -92 -119 0
1.0 -186 12 0
1.0 -24 197 0
1.0 -119 26 0
1.0 136 -183 0
1.0 150 -95 0
1.0 114 156 0
1.0 -197 178 0
1.0 -96 115 0
1.0 -126 -162 0
1.0 159 74 0
1.0 -99 151 0
1.0 -133 182 0
1.0 77 -30 0
1.0 -186 -14 0
1.0 192 156 0
1.0 -70 -60 0
1.0 -22 -111 0
1.0 184 178 0
1.0 -128 26 0
1.0 -8 55 0
1.0 84 146 0
1.0 159 -64 0
1.0 20 122 0
1.0 182 6 0
1.0 -116 29 0
1.0 -6 -41 0
1.0 -67 97 0
1.0 -151 135 0
1.0 -80 31 0
1.0 -95 -154 0
1.0 76 26 0
1.0 31 -87 0
1.0 116 -44 0
1.0 85 -25 0
1.0 122 46 0
1.0 -180 183 0
1.0 14 -8 0
1.0 162 86 0
1.0 112 -24 0
1.0 111 154 0
1.0 -198 133 0
1.0 158 200 0
1.0 -45 59 0
1.0 42 56 0
1.0 -64 181 0
1.0 67 -183 0
1.0 -7 -155 0
1.0 -109 -8 0
1.0 -141 89 0
1.0 -89 -21 0
1.0 -80 -127 0
1.0 -183 40 0
1.0 21 137 0
1.0 119 -133 0
1.0 88 -184 0
1.0 -192 -185 0
1.0 74 -89 0
1.0 110 -6 0
1.0 -132 -52 0
1.0 -92 -85 0
1.0 -21 -31 0
1.0 164 63 0
1.0 47 106 0
1.0 -90 -147 0
1.0 -36 -199 0
1.0 -4 -19 0
1.0 70 -44 0
1.0 129 -9 0
1.0 40 70 0
1.0 133 -153 0
1.0 59 -100 0
1.0 -46 186 0
1.0 184 -36 0
1.0 -54 -161 0
1.0 5 -171 0
1.0 180 156 0
1.0 26 -170 0
1.0 -123 -75 0
1.0 -174 152 0
1.0 -137 -41 0
1.0 -77 -127 0
1.0 88 29 0
1.0 199 -137 0
1.0 -92 -106 0
1.0 76 -18 0
1.0 -93 10 0
1.0 161 109 0
1.0 149 185 0
1.0 -112 -123 0
1.0 151 -8 0
1.0 -145 115 0
1.0 -20 125 0
1.0 143 28 0
1.0 38 -72 0
1.0 180 -185 0
1.0 -169 112 0
1.0 35 -109 0
1.0 -117 170 0
1.0 85 -63 0
1.0 -188 -51 0
1.0 -79 -92 0
1.0 -164 -65 0
1.0 49 9 0
1.0 121 -26 0
1.0 -134 178 0
1.0 -148 75 0
1.0 -138 -7 0
1.0 58 -135 0
1.0 27 -21 0
1.0 -85 -165 0
1.0 -174 6 0
1.0 31 -49 0
1.0 26 -189 0
1.0 64 124 0
1.0 -130 -141 0
1.0 -75 -182 0
1.0 2 174 0
1.0 139 -26 0
1.0 31 171 0
1.0 19 55 0
1.0 43 -38 0
1.0 -161 22 0
1.0 162 33 0
1.0 -14 1 0
1.0 -174 -31 0
1.0 56 121 0
1.0 -91 -29 0
1.0 -84 -171 0
1.0 9 -172 0
1.0 194 -139 0
1.0 -171 -138 0
1.0 -138 -131 0
1.0 161 101 0
1.0 -22 -46 0
1.0 75 -50 0
1.0 21 176 0
1.0 -148 -116 0
1.0 54 58 0
1.0 196 -88 0
1.0 19 -8 0
1.0 -108 -68 0
1.0 113 -98 0
1.0 -147 -63 0
1.0 -39 -29 0
1.0 -144 -194 0
1.0 51 22 0
1.0 -110 -29 0
1.0 -36 -24 0
1.0 91 102 0
1.0 -200 -113 0
1.0 -175 136 0
1.0 -165 -109 0
1.0 -102 -126 0
1.0 -148 126 0
1.0 -155 -178 0
1.0 -1 92 0
1.0 193 -5 0
1.0 -118 85 0
1.0 -21 -52 0
1.0 160 105 0
1.0 31 -199 0
1.0 125 12 0
1.0 189 -20 0
1.0 111 -3 0
1.0 7 -175 0
1.0 59 34 0
1.0 86 122 0
1.0 -27 158 0
1.0 157 119 0
1.0 -131 -70 0
1.0 -90 30 0
1.0 -32 188 0
1.0 -162 1 0
1.0 35 -178 0
1.0 -100 -165 0
1.0 -123 70 0
1.0 -189 -17 0
1.0 87 -121 0
1.0 -150 -145 0
1.0 133 81 0
1.0 -82 -182 0
1.0 160 15 0
1.0 -180 -199 0
1.0 -69 166 0
1.0 -182 141 0
1.0 62 13 0
1.0 -158 20 0
1.0 -101 -12 0
1.0 194 -99 0
1.0 114 132 0
1.0 -131 -196 0
1.0 161 -176 0
1.0 116 -31 0
1.0 -43 -54 0
1.0 74 -181 0
1.0 -192 -74 0
1.0 -173 53 0
1.0 -185 -149 0
1.0 -144 -174 0
1.0 149 168 0
1.0 199 57 0
1.0 110 -30 0
1.0 -10 130 0
1.0 -3 -113 0
1.0 166 -124 0
1.0 73 40 0
1.0 -13 -178 0
1.0 146 -168 0
1.0 -25 -68 0
1.0 -97 -24 0
1.0 -153 -75 0
1.0 -188 -94 0
1.0 -18 191 0
1.0 -30 168 0
1.0 145 28 0
1.0 196 30 0
1.0 -97 -18 0
1.0 41 -72 0
1.0 -146 -8 0
1.0 102 -80 0
1.0 70 189 0
1.0 -157 -116 0
1.0 -144 -146 0
1.0 -175 24 0
1.0 41 113 0
1.0 184 -165 0
1.0 172 25 0
1.0 -104 -149 0
1.0 138 1 0
1.0 -117 15 0
1.0 -161 -185 0
1.0 9 158 0
1.0 71 131 0
1.0 7 184 0
1.0 -46 -80 0
1.0 -72 109 0
1.0 -182 -24 0
1.0 -18 49 0
1.0 48 92 0
1.0 98 -59 0
1.0 190 -130 0
1.0 113 -10 0
1.0 -90 -164 0
1.0 73 82 0
1.0 106 -23 0
1.0 -71 -7 0
1.0 -98 -135 0
1.0 -194 -199 0
1.0 -128 166 0
1.0 -175 8 0
1.0 172 149 0
1.0 30 -60 0
1.0 82 -148 0
1.0 154 184 0
1.0 119 -193 0
1.0 191 -9 0
1.0 -174 -76 0
1.0 84 155 0
1.0 103 -39 0
1.0 98 -196 0
1.0 -143 127 0
1.0 -110 1 0
1.0 -193 -195 0
1.0 -4 -36 0
1.0 -112 -59 0
1.0 14 -140 0
1.0 178 149 0
1.0 144 116 0
1.0 -42 -186 0
1.0 -186 -132 0
1.0 -126 -119 0
1.0 -155 64 0
1.0 123 -33 0
1.0 172 -112 0
1.0 61 99 0
1.0 14 80 0
1.0 65 74 0
1.0 5 -185 0
1.0 104 191 0
1.0 -55 -166 0
1.0 -198 -186 0
1.0 -98 -163 0
1.0 -62 143 0
1.0 -22 54 0
1.0 -128 -136 0
1.0 121 166 0
1.0 157 123 0
1.0 -88 6 0
1.0 191 100 0
1.0 62 -172 0
1.0 -115 -8 0
1.0 61 -128 0
1.0 -64 -160 0
1.0 126 183 0
1.0 105 -90 0
1.0 96 81 0
1.0 -181 132 0
1.0 -104 19 0
1.0 -26 164 0
1.0 91 -176 0
1.0 -135 194 0
1.0 -176 147 0
1.0 -36 -72 0
1.0 149 17 0
1.0 -191 140 0
1.0 105 2 0
1.0 -156 -122 0
1.0 195 -113 0
1.0 -51 -127 0
1.0 69 -43 0
1.0 114 165 0
1.0 -181 -117 0
1.0 -57 -126 0
1.0 128 15 0
1.0 136 -187 0
1.0 -99 -80 0
1.0 -6 82 0
1.0 -124 180 0
1.0 144 -199 0
1.0 116 -40 0
1.0 -166 77 0
1.0 -92 160 0
1.0 -146 189 0
1.0 -68 77 0
1.0 -158 142 0
1.0 -121 127 0
1.0 -125 16 0
1.0 55 86 0
1.0 -162 142 0
1.0 102 87 0
1.0 76 -39 0
1.0 115 87 0
1.0 -28 -165 0
1.0 91 70 0
1.0 85 -3 0
1.0 -89 65 0
1.0 -7 -72 0
1.0 -159 185 0
1.0 -23 -48 0
1.0 135 -194 0
1.0 -158 162 0
1.0 32 -125 0
1.0 127 117 0
1.0 182 -16 0
1.0 88 170 0
1.0 154 -51 0
1.0 -99 57 0
1.0 -50 123 0
1.0 85 -106 0
1.0 30 -119 0
1.0 -36 89 0
1.0 105 -38 0
1.0 8 -101 0
1.0 -152 119 0
1.0 176 51 0
1.0 173 77 0
1.0 -183 88 0
1.0 -7 6 0
1.0 94 -140 0
1.0 -177 -64 0
1.0 -165 -29 0
1.0 -147 -82 0
1.0 -132 -48 0
1.0 -125 -180 0
1.0 -68 133 0
1.0 -138 86 0
1.0 25 175 0
1.0 -39 20 0
1.0 -49 -130 0
1.0 -11 -84 0
1.0 131 65 0
1.0 -44 -6 0
1.0 -139 80 0
1.0 -165 -100 0
1.0 -75 -139 0
1.0 -158 175 0
1.0 104 -35 0
1.0 118 119 0
1.0 -183 103 0
1.0 -109 65 0
1.0 -144 -121 0
1.0 20 33 0
1.0 171 -87 0
1.0 -61 -124 0
1.0 159 136 0
1.0 -55 136 0
1.0 38 -26 0
1.0 -90 199 0
1.0 -120 -117 0
1.0 149 -37 0
1.0 123 -42 0
1.0 -166 -182 0
1.0 -117 -28 0
1.0 164 122 0
1.0 -148 71 0
1.0 69 -140 0
1.0 -57 12 0
1.0 -49 -161 0
1.0 -3 -172 0
1.0 153 103 0
1.0 131 90 0
1.0 12 -48 0
1.0 -118 -42 0
1.0 -181 67 0
1.0 79 -102 0
1.0 63 167 0
1.0 139 52 0
1.0 -155 123 0
1.0 -13 1 0
1.0 -49 -73 0
1.0 -114 179 0
1.0 -46 -128 0
1.0 30 175 0
1.0 -142 147 0
1.0 -198 -189 0
1.0 112 -132 0
1.0 -133 -15 0
1.0 -88 130 0
1.0 108 -101 0
1.0 29 28 0
1.0 -2 -126 0
1.0 72 107 0
1.0 95 193 0
1.0 -125 59 0
1.0 74 -77 0
1.0 -6 -185 0
1.0 85 -58 0
1.0 -85 142 0
1.0 67 -121 0
1.0 27 -51 0
1.0 -44 -29 0
1.0 87 -58 0
1.0 -134 -62 0
1.0 47 -82 0
1.0 139 119 0
1.0 -60 -15 0
1.0 135 -139 0
1.0 190 72 0
1.0 100 -9 0
1.0 -66 -25 0
1.0 -87 -66 0
1.0 147 193 0
1.0 -111 -108 0
1.0 122 18 0
1.0 157 -162 0
1.0 -33 -98 0
1.0 -107 -179 0
1.0 -4 63 0
1.0 128 112 0
1.0 -104 85 0
1.0 -192 -68 0
1.0 -86 82 0
1.0 -43 186 0
1.0 84 -166 0
1.0 -144 -124 0
1.0 187 -135 0
1.0 -47 -58 0
1.0 -142 -148 0
1.0 15 -150 0
1.0 -31 16 0
1.0 -1 130 0
1.0 95 155 0
1.0 -79 38 0
1.0 -172 21 0
1.0 -79 166 0
1.0 -113 -133 0
1.0 82 -200 0
1.0 -16 171 0
1.0 -101 -135 0
1.0 90 -175 0
1.0 12 -19 0
1.0 40 -11 0
1.0 -177 171 0
1.0 104 -91 0
1.0 91 -45 0
1.0 -16 -85 0
1.0 -20 -23 0
1.0 198 146 0
1.0 -165 110 0
1.0 -121 196 0
1.0 -167 60 0
1.0 151 2 0
1.0 -47 154 0
1.0 -39 70 0
1.0 -93 91 0
1.0 37 46 0
1.0 156 94 0
1.0 -89 129 0
1.0 -188 -158 0
1.0 -160 181 0
1.0 135 -127 0
1.0 197 47 0
1.0 -138 -200 0
1.0 -45 -79 0
1.0 173 182 0
1.0 -110 48 0
1.0 5 -42 0
1.0 -23 -16 0
1.0 -143 -38 0
1.0 84 164 0
1.0 -163 8 0
1.0 86 171 0
1.0 -152 83 0
1.0 -131 -36 0
1.0 78 -195 0
1.0 10 -69 0
1.0 106 -190 0
1.0 153 -119 0
1.0 -126 6 0
1.0 177 -130 0
1.0 -13 -189 0
1.0 24 -148 0
1.0 142 -178 0
1.0 -46 -60 0
1.0 -49 194 0
1.0 -112 152 0
1.0 158 -39 0
1.0 168 -118 0
1.0 -106 -51 0
1.0 199 -2 0
1.0 179 33 0
1.0 -92 -195 0
1.0 -188 117 0
1.0 -69 57 0
1.0 -95 185 0
1.0 102 21 0
1.0 -71 166 0
1.0 168 -169 0
1.0 -1 101 0
1.0 96 145 0
1.0 -62 -174 0
1.0 -31 -119 0
1.0 -103 114 0
1.0 134 31 0
1.0 197 -149 0
1.0 -118 -83 0
1.0 184 79 0
1.0 -24 44 0
1.0 18 144 0
1.0 -62 -169 0
1.0 -82 162 0
1.0 193 -180 0
1.0 -129 93 0
1.0 -176 -64 0
1.0 143 -176 0
1.0 19 200 0
1.0 144 65 0
1.0 -33 -59 0
1.0 -21 138 0
1.0 117 148 0
1.0 40 158 0
1.0 -21 -57 0
1.0 -32 12 0
1.0 11 -180 0
1.0 -44 172 0
1.0 -30 128 0
1.0 65 -119 0
1.0 66 -68 0
1.0 -25 119 0
1.0 175 95 0
1.0 106 -138 0
1.0 117 -143 0
1.0 114 -29 0
1.0 -157 26 0
1.0 145 58 0
1.0 -125 -30 0
1.0 -149 -37 0
1.0 -131 5 0
1.0 -142 186 0
1.0 128 22 0
1.0 -51 55 0
1.0 81 178 0
1.0 36 -30 0
1.0 -60 151 0
1.0 -188 -106 0
1.0 -110 61 0
1.0 -47 -106 0
1.0 128 -129 0
1.0 -184 199 0
1.0 177 13 0
1.0 -43 -125 0
1.0 -76 83 0
1.0 -188 42 0
1.0 -103 -135 0
1.0 -41 -59 0
1.0 -188 -137 0
1.0 135 -132 0
1.0 -145 -125 0
1.0 50 -95 0
1.0 -177 -199 0
1.0 40 -169 0
1.0 103 -11 0
1.0 -70 12 0
1.0 148 58 0
1.0 -190 -63 0
1.0 -188 117 0
1.0 -11 -9 0
1.0 -7 149 0
1.0 -117 14 0
1.0 -25 78 0
1.0 -90 73 0
1.0 -131 -178 0
1.0 40 113 0
1.0 29 174 0
1.0 182 -24 0
1.0 173 179 0
1.0 -193 22 0
1.0 -100 -69 0
1.0 142 61 0
1.0 -38 145 0
1.0 -58 46 0
1.0 -19 -167 0
1.0 -191 -153 0
1.0 132 -23 0
1.0 -44 -159 0
1.0 -28 -52 0
1.0 112 -158 0
1.0 103 -33 0
1.0 78 131 0
1.0 98 172 0
1.0 125 84 0
1.0 -106 -101 0
1.0 59 121 0
1.0 172 25 0
1.0 183 96 0
